58
150
105	1
104	2
103	4
102	2
101	1
100	1
99	1
97	3
96	3
95	3
93	1
92	1
91	1
89	1
88	4
87	1
86	6
85	3
84	2
82	2
81	1
80	3
79	1
78	1
77	2
76	1
73	2
72	1
71	1
70	1
69	1
68	2
61	1
59	3
57	1
55	1
54	1
53	1
52	2
51	2
50	1
49	1
48	3
47	1
46	2
45	1
44	1
42	2
41	2
40	3
39	1
38	1
37	1
36	3
34	1
33	2
31	1
30	1
